SCIP version 5.0.0 [precision: 8 byte] [memory: block] [mode: optimized] [LP solver: NONE] [GitHash: 3bbd232]
Copyright (C) 2002-2017 Konrad-Zuse-Zentrum fuer Informationstechnik Berlin (ZIB)

External codes: 
  Readline EditLine w  GNU library for command line editing (gnu.org/s/readline)
  CppAD 20160000.1     Algorithmic Differentiation of C++ algorithms developed by B. Bell (www.coin-or.org/CppAD)
  ZLIB 1.2.5           General purpose compression library by J. Gailly and M. Adler (zlib.net)
  GMP 6.1.2            GNU Multiple Precision Arithmetic Library developed by T. Granlund (gmplib.org)

user parameter file <scip.set> not found - using default parameters

read problem <../../Split_data/output/biodeg/9/4_sample_biodeg.logreg>
============

File name	:	../../Split_data/output/biodeg/9/4_sample_biodeg.logreg
Problem name 	:	4_sample_biodeg
Number of data	:	844
Number of var	:	41
The given data has linear independence

[dim=1] time: 0.029181
[dim=2] time: 0.059101
[dim=3] time: 0.092884
[dim=4] time: 0.123787
[dim=5] time: 0.154515
[dim=6] time: 0.183181
[dim=7] time: 0.212005
[dim=8] time: 0.238589
[dim=9] time: 0.265487
[dim=10] time: 0.292101
[dim=11] time: 0.317235
[dim=12] time: 0.341785
[dim=13] time: 0.366711
[dim=14] time: 0.391107
[dim=15] time: 0.41504
[dim=16] time: 0.436479
[dim=17] time: 0.459777
[dim=18] time: 0.48094
[dim=19] time: 0.501994
[dim=20] time: 0.522681
[dim=21] time: 0.542763
[dim=22] time: 0.562275
[dim=23] time: 0.576691
[dim=24] time: 0.589931
[dim=25] time: 0.602851
[dim=26] Time of forward = 0.61617sec.
AIC: 518.94
k: 25

[dim=41] time: 0.143585
[dim=40] time: 0.191514
[dim=39] time: 0.244923
[dim=38] time: 0.300814
[dim=37] time: 0.356425
[dim=36] time: 0.405666
[dim=35] time: 0.45762
[dim=34] time: 0.50529
[dim=33] time: 0.551013
[dim=32] time: 0.590312
[dim=31] time: 0.630364
[dim=30] time: 0.6694
[dim=29] time: 0.705887
[dim=28] time: 0.74075
[dim=27] time: 0.771671
[dim=26] time: 0.803121
[dim=25] Time of backward = 0.832217sec.
AIC: 516.453
k: 26
